16 32
1 2 3
1 5 1
2 3 5
2 6 1
3 4 3
3 7 1
4 8 4
5 6 3
5 9 4
6 7 2
6 10 2
7 8 5
7 11 3
8 12 4
9 10 4
9 13 1
10 11 4
10 14 4
11 12 1
11 15 1
12 16 2
13 14 5
14 15 5
15 16 3
1 13 3
2 14 5
3 15 5
4 16 1
1 4 2
5 8 3
9 12 5
13 16 2
